p wcnf 171 256 257 
1 -96 -158 0 
1 27 -89 0 
1 55 127 0 
1 -20 -43 0 
1 90 109 0 
1 -95 -74 0 
1 -83 -122 0 
1 -105 98 0 
1 30 33 0 
1 43 2 0 
1 19 33 0 
1 -32 -4 0 
1 -46 -106 0 
1 -161 42 0 
1 -105 -80 0 
1 71 -105 0 
1 -16 129 0 
1 125 -162 0 
1 141 74 0 
1 94 50 0 
1 -17 77 0 
1 82 47 0 
1 -114 -18 0 
1 -76 -48 0 
1 -150 -122 0 
1 -44 -1 0 
1 30 -130 0 
1 134 151 0 
1 21 171 0 
1 117 -138 0 
1 100 -2 0 
1 43 -92 0 
1 -103 7 0 
1 -129 1 0 
1 156 -111 0 
1 -81 82 0 
1 -141 18 0 
1 84 -59 0 
1 52 67 0 
1 -169 -164 0 
1 113 -121 0 
1 164 170 0 
1 61 22 0 
1 87 -65 0 
1 32 82 0 
1 -87 -136 0 
1 -132 69 0 
1 70 -159 0 
1 104 56 0 
1 104 -120 0 
1 149 108 0 
1 74 133 0 
1 141 87 0 
1 75 109 0 
1 170 -32 0 
1 -112 65 0 
1 -51 83 0 
1 -65 155 0 
1 86 -57 0 
1 116 98 0 
1 -78 107 0 
1 -68 110 0 
1 159 12 0 
1 -11 -100 0 
1 137 -61 0 
1 -22 -113 0 
1 9 44 0 
1 102 -23 0 
1 1 -81 0 
1 -11 77 0 
1 -117 -4 0 
1 -23 -100 0 
1 130 57 0 
1 148 171 0 
1 137 -159 0 
1 -165 18 0 
1 2 139 0 
1 -90 29 0 
1 28 -33 0 
1 -118 139 0 
1 -97 15 0 
1 128 -7 0 
1 111 59 0 
1 -95 106 0 
1 -91 -136 0 
1 -152 -98 0 
1 -164 -133 0 
1 -170 -94 0 
1 165 144 0 
1 148 57 0 
1 -56 -165 0 
1 41 26 0 
1 146 42 0 
1 -97 38 0 
1 22 48 0 
1 66 16 0 
1 66 -12 0 
1 15 -25 0 
1 62 76 0 
1 55 -86 0 
1 -65 127 0 
1 123 -70 0 
1 9 -146 0 
1 92 146 0 
1 12 -81 0 
1 111 -24 0 
1 120 18 0 
1 -85 132 0 
1 -79 156 0 
1 -45 -10 0 
1 -26 -124 0 
1 47 78 0 
1 149 13 0 
1 69 136 0 
1 -34 32 0 
1 -59 -13 0 
1 29 -27 0 
1 -158 65 0 
1 151 146 0 
1 81 55 0 
1 -96 -113 0 
1 159 -69 0 
1 -12 -30 0 
1 -56 -115 0 
1 61 117 0 
1 -31 -94 0 
1 86 -77 0 
1 -115 -69 0 
1 98 -110 0 
1 -117 -116 0 
1 21 115 0 
1 40 -78 0 
1 -123 -39 0 
1 -90 -171 0 
1 -157 36 0 
1 -138 158 0 
1 57 143 0 
1 18 -14 0 
1 25 104 0 
1 -127 -27 0 
1 -69 -124 0 
1 -34 1 0 
1 112 119 0 
1 146 52 0 
1 -43 141 0 
1 51 74 0 
1 114 -123 0 
1 -155 -89 0 
1 -87 -130 0 
1 -74 45 0 
1 107 132 0 
1 41 161 0 
1 2 69 0 
1 42 -94 0 
1 -79 137 0 
1 119 69 0 
1 28 -165 0 
1 65 -120 0 
1 143 171 0 
1 -144 -30 0 
1 -14 34 0 
1 -154 -78 0 
1 68 135 0 
1 -93 -73 0 
1 -52 -134 0 
1 126 -99 0 
1 -81 142 0 
1 -137 84 0 
1 -125 -90 0 
1 162 -152 0 
1 -52 -146 0 
1 25 138 0 
1 -126 171 0 
1 101 -159 0 
1 -60 -139 0 
1 119 -75 0 
1 -162 145 0 
1 -84 -159 0 
1 -91 164 0 
1 91 -3 0 
1 -158 -112 0 
1 -151 35 0 
1 81 -24 0 
1 8 -2 0 
1 -55 139 0 
1 160 116 0 
1 -106 -21 0 
1 156 -101 0 
1 107 -145 0 
1 171 -130 0 
1 -129 -147 0 
1 -13 17 0 
1 -10 -116 0 
1 146 113 0 
1 70 -110 0 
1 65 -78 0 
1 69 -25 0 
1 -24 138 0 
1 29 134 0 
1 -152 79 0 
1 -32 -79 0 
1 -149 -119 0 
1 -113 -48 0 
1 24 115 0 
1 -34 20 0 
1 -129 64 0 
1 -42 -167 0 
1 15 -50 0 
1 -116 -71 0 
1 -135 153 0 
1 162 17 0 
1 -131 -65 0 
1 117 124 0 
1 39 2 0 
1 -21 62 0 
1 119 36 0 
1 64 84 0 
1 95 -70 0 
1 104 123 0 
1 1 -152 0 
1 133 83 0 
1 7 -22 0 
1 -108 -135 0 
1 -150 -34 0 
1 19 114 0 
1 -135 -6 0 
1 49 -123 0 
1 -33 44 0 
1 155 -11 0 
1 -127 20 0 
1 12 -58 0 
1 16 -23 0 
1 -84 -98 0 
1 19 -134 0 
1 -80 -11 0 
1 170 -127 0 
1 -29 -72 0 
1 47 -134 0 
1 107 -163 0 
1 -30 -81 0 
1 135 -43 0 
1 -2 -53 0 
1 -140 95 0 
1 43 -12 0 
1 -7 -78 0 
1 -127 -102 0 
1 -102 -131 0 
1 -83 -100 0 
1 137 148 0 
1 -57 -83 0 
1 -8 101 0 
1 60 -95 0 
1 87 32 0 
1 -7 94 0 
1 10 110 0 
1 -78 -88 0 
